NAME : grid
TYPE : TSP
DIMENSION : 50
EDGE_WEIGHT_TYPE : EUC_2D
NODE_COORD_SECTION
1 493223 737420
2 364438 63455
3 669297 707981
4 680849 830465
5 17389 573014
6 769549 12949
7 882722 354268
8 381218 983163
9 435882 758146
10 363023 850705
11 860931 255993
12 648473 389998
13 201135 222580
14 565899 243735
15 541563 778430
16 331511 241038
17 797472 111581
18 46902 530060
19 636013 63455
20 629730 398230
21 383233 868368
22 772518 858527
23 36614 16867
24 385857 799594
25 462724 614002
26 348175 937538
27 364438 302365
28 68649 757899
29 680504 316225
30 739362 331793
31 84188 468840
32 331511 530060
33 896126 48139
34 290809 542311
35 343108 998289
36 954343 233700
37 144895 645547
38 46902 241038
39 797143 504390
40 382811 465127
41 70663 838374
42 893621 880290
43 741326 30407
44 950040 378895
45 175235 43800
46 636013 302365
47 436606 906970
48 660727 241332
49 56135 936357
50 988856 739981
EOF
